certificates/rado_a13_c246_N24.cnf
c Rad2 upper bound instance: x1 + 13*x2 - x3 = 246, interval [1,24]
p cnf 24 90
1 2 19 0
-1 -2 -19 0
1 15 20 0
-1 -15 -20 0
2 3 19 0
-2 -3 -19 0
2 16 20 0
-2 -16 -20 0
3 4 19 0
-3 -4 -19 0
3 17 20 0
-3 -17 -20 0
4 5 19 0
-4 -5 -19 0
4 18 20 0
-4 -18 -20 0
5 6 19 0
-5 -6 -19 0
5 19 20 0
-5 -19 -20 0
6 7 19 0
-6 -7 -19 0
6 20 0
-6 -20 0
7 8 19 0
-7 -8 -19 0
7 20 21 0
-7 -20 -21 0
8 9 19 0
-8 -9 -19 0
8 20 22 0
-8 -20 -22 0
9 10 19 0
-9 -10 -19 0
9 20 23 0
-9 -20 -23 0
10 11 19 0
-10 -11 -19 0
10 20 24 0
-10 -20 -24 0
11 12 19 0
-11 -12 -19 0
12 13 19 0
-12 -13 -19 0
1 13 18 0
-1 -13 -18 0
13 14 19 0
-13 -14 -19 0
2 14 18 0
-2 -14 -18 0
14 15 19 0
-14 -15 -19 0
3 15 18 0
-3 -15 -18 0
15 16 19 0
-15 -16 -19 0
4 16 18 0
-4 -16 -18 0
16 17 19 0
-16 -17 -19 0
5 17 18 0
-5 -17 -18 0
17 18 19 0
-17 -18 -19 0
6 18 0
-6 -18 0
18 19 0
-18 -19 0
7 18 19 0
-7 -18 -19 0
19 20 0
-19 -20 0
8 18 20 0
-8 -18 -20 0
19 20 21 0
-19 -20 -21 0
9 18 21 0
-9 -18 -21 0
19 21 22 0
-19 -21 -22 0
10 18 22 0
-10 -18 -22 0
19 22 23 0
-19 -22 -23 0
11 18 23 0
-11 -18 -23 0
19 23 24 0
-19 -23 -24 0
12 18 24 0
-12 -18 -24 0
