certificates/rado_a13_c246_N24.drat
-23 -24 0
d -23 -19 -24 0
-20 -24 0
-24 0
20 0
-6 0
-19 0
5 0
7 0
18 0
23 0
-17 0
-21 0
-4 0
-8 0
-11 0
-9 0
16 0
22 0
3 0
0
